/* Cplex Data generated on 2017-12-16 */

k = 76;

b = 38;

AtomicConstraints = {
	 <2, 53>,
	 <2, 49>,
	 <2, 47>,
	 <2, 56>,
	 <2, 57>,
	 <2, 52>,
	 <2, 39>,
	 <2, 48>,
	 <2, 23>,
	 <2, 24>,
	 <2, 25>,
	 <2, 26>,
	 <2, 27>,
	 <2, 74>,
	 <2, 68>,
	 <2, 67>,
	 <2, 70>,
	 <2, 60>,
	 <2, 59>,
	 <2, 58>,
	 <2, 71>,
	 <2, 72>,
	 <2, 73>,
	 <2, 75>,
	 <2, 76>,
	 <2, 55>,
	 <2, 69>,
	 <2, 41>,
	 <3, 53>,
	 <3, 49>,
	 <3, 47>,
	 <3, 56>,
	 <3, 57>,
	 <3, 52>,
	 <3, 39>,
	 <3, 48>,
	 <3, 23>,
	 <3, 24>,
	 <3, 25>,
	 <3, 26>,
	 <3, 27>,
	 <3, 74>,
	 <3, 68>,
	 <3, 67>,
	 <3, 70>,
	 <3, 60>,
	 <3, 59>,
	 <3, 58>,
	 <3, 71>,
	 <3, 72>,
	 <3, 73>,
	 <3, 75>,
	 <3, 76>,
	 <3, 55>,
	 <3, 69>,
	 <3, 41>,
	 <4, 53>,
	 <4, 49>,
	 <4, 47>,
	 <4, 56>,
	 <4, 57>,
	 <4, 52>,
	 <4, 39>,
	 <4, 48>,
	 <4, 23>,
	 <4, 24>,
	 <4, 25>,
	 <4, 26>,
	 <4, 27>,
	 <4, 74>,
	 <4, 68>,
	 <4, 67>,
	 <4, 70>,
	 <4, 60>,
	 <4, 59>,
	 <4, 58>,
	 <4, 71>,
	 <4, 72>,
	 <4, 73>,
	 <4, 75>,
	 <4, 76>,
	 <4, 55>,
	 <4, 69>,
	 <4, 41>,
	 <5, 53>,
	 <5, 49>,
	 <5, 47>,
	 <5, 56>,
	 <5, 57>,
	 <5, 52>,
	 <5, 39>,
	 <5, 48>,
	 <5, 23>,
	 <5, 24>,
	 <5, 25>,
	 <5, 26>,
	 <5, 27>,
	 <5, 74>,
	 <5, 68>,
	 <5, 67>,
	 <5, 70>,
	 <5, 60>,
	 <5, 59>,
	 <5, 58>,
	 <5, 71>,
	 <5, 72>,
	 <5, 73>,
	 <5, 75>,
	 <5, 76>,
	 <5, 55>,
	 <5, 69>,
	 <5, 41>,
	 <6, 53>,
	 <6, 49>,
	 <6, 47>,
	 <6, 56>,
	 <6, 57>,
	 <6, 52>,
	 <6, 39>,
	 <6, 48>,
	 <6, 23>,
	 <6, 24>,
	 <6, 25>,
	 <6, 26>,
	 <6, 27>,
	 <6, 74>,
	 <6, 68>,
	 <6, 67>,
	 <6, 70>,
	 <6, 60>,
	 <6, 59>,
	 <6, 58>,
	 <6, 71>,
	 <6, 72>,
	 <6, 73>,
	 <6, 75>,
	 <6, 76>,
	 <6, 55>,
	 <6, 69>,
	 <6, 41>,
	 <7, 53>,
	 <7, 49>,
	 <7, 47>,
	 <7, 56>,
	 <7, 57>,
	 <7, 52>,
	 <7, 39>,
	 <7, 48>,
	 <7, 23>,
	 <7, 24>,
	 <7, 25>,
	 <7, 26>,
	 <7, 27>,
	 <7, 74>,
	 <7, 68>,
	 <7, 67>,
	 <7, 70>,
	 <7, 60>,
	 <7, 59>,
	 <7, 58>,
	 <7, 71>,
	 <7, 72>,
	 <7, 73>,
	 <7, 75>,
	 <7, 76>,
	 <7, 55>,
	 <7, 69>,
	 <7, 41>,
	 <8, 53>,
	 <8, 49>,
	 <8, 47>,
	 <8, 56>,
	 <8, 57>,
	 <8, 52>,
	 <8, 39>,
	 <8, 48>,
	 <8, 23>,
	 <8, 24>,
	 <8, 25>,
	 <8, 26>,
	 <8, 27>,
	 <8, 74>,
	 <8, 68>,
	 <8, 67>,
	 <8, 70>,
	 <8, 60>,
	 <8, 59>,
	 <8, 58>,
	 <8, 71>,
	 <8, 72>,
	 <8, 73>,
	 <8, 75>,
	 <8, 76>,
	 <8, 55>,
	 <8, 69>,
	 <8, 41>,
	 <9, 53>,
	 <9, 49>,
	 <9, 47>,
	 <9, 56>,
	 <9, 57>,
	 <9, 52>,
	 <9, 39>,
	 <9, 48>,
	 <9, 23>,
	 <9, 24>,
	 <9, 25>,
	 <9, 26>,
	 <9, 27>,
	 <9, 74>,
	 <9, 68>,
	 <9, 67>,
	 <9, 70>,
	 <9, 60>,
	 <9, 59>,
	 <9, 58>,
	 <9, 71>,
	 <9, 72>,
	 <9, 73>,
	 <9, 75>,
	 <9, 76>,
	 <9, 55>,
	 <9, 69>,
	 <9, 41>,
	 <10, 53>,
	 <10, 49>,
	 <10, 47>,
	 <10, 56>,
	 <10, 57>,
	 <10, 52>,
	 <10, 39>,
	 <10, 48>,
	 <10, 23>,
	 <10, 24>,
	 <10, 25>,
	 <10, 26>,
	 <10, 27>,
	 <10, 74>,
	 <10, 68>,
	 <10, 67>,
	 <10, 70>,
	 <10, 60>,
	 <10, 59>,
	 <10, 58>,
	 <10, 71>,
	 <10, 72>,
	 <10, 73>,
	 <10, 75>,
	 <10, 76>,
	 <10, 55>,
	 <10, 69>,
	 <10, 41>,
	 <1, 53>,
	 <1, 49>,
	 <1, 47>,
	 <1, 56>,
	 <1, 57>,
	 <1, 52>,
	 <1, 39>,
	 <1, 48>,
	 <1, 23>,
	 <1, 24>,
	 <1, 25>,
	 <1, 26>,
	 <1, 27>,
	 <1, 61>,
	 <1, 33>,
	 <1, 34>,
	 <1, 35>,
	 <1, 36>,
	 <1, 62>,
	 <1, 63>,
	 <1, 64>,
	 <1, 65>,
	 <1, 66>,
	 <1, 37>,
	 <1, 38>,
	 <1, 74>,
	 <1, 68>,
	 <1, 67>,
	 <1, 70>,
	 <1, 60>,
	 <1, 59>,
	 <1, 58>,
	 <1, 71>,
	 <1, 72>,
	 <1, 73>,
	 <1, 75>,
	 <1, 76>,
	 <1, 55>,
	 <1, 69>,
	 <1, 41>,
	 <12, 53>,
	 <12, 49>,
	 <12, 47>,
	 <12, 56>,
	 <12, 57>,
	 <12, 52>,
	 <12, 39>,
	 <12, 48>,
	 <12, 23>,
	 <12, 24>,
	 <12, 25>,
	 <12, 26>,
	 <12, 27>,
	 <12, 74>,
	 <12, 68>,
	 <12, 67>,
	 <12, 70>,
	 <12, 60>,
	 <12, 59>,
	 <12, 58>,
	 <12, 71>,
	 <12, 72>,
	 <12, 73>,
	 <12, 75>,
	 <12, 76>,
	 <12, 55>,
	 <12, 69>,
	 <12, 41>,
	 <13, 1>,
	 <13, 11>,
	 <13, 14>,
	 <13, 53>,
	 <13, 49>,
	 <13, 47>,
	 <13, 56>,
	 <13, 57>,
	 <13, 52>,
	 <13, 39>,
	 <13, 48>,
	 <13, 23>,
	 <13, 24>,
	 <13, 25>,
	 <13, 26>,
	 <13, 27>,
	 <13, 61>,
	 <13, 33>,
	 <13, 34>,
	 <13, 35>,
	 <13, 36>,
	 <13, 62>,
	 <13, 63>,
	 <13, 64>,
	 <13, 65>,
	 <13, 66>,
	 <13, 37>,
	 <13, 38>,
	 <13, 74>,
	 <13, 68>,
	 <13, 67>,
	 <13, 70>,
	 <13, 60>,
	 <13, 59>,
	 <13, 58>,
	 <13, 71>,
	 <13, 72>,
	 <13, 73>,
	 <13, 75>,
	 <13, 76>,
	 <13, 55>,
	 <13, 69>,
	 <13, 41>,
	 <50, 1>,
	 <50, 11>,
	 <50, 14>,
	 <50, 18>,
	 <50, 53>,
	 <50, 49>,
	 <50, 47>,
	 <50, 56>,
	 <50, 57>,
	 <50, 52>,
	 <50, 39>,
	 <50, 48>,
	 <50, 23>,
	 <50, 24>,
	 <50, 25>,
	 <50, 26>,
	 <50, 27>,
	 <50, 61>,
	 <50, 33>,
	 <50, 34>,
	 <50, 35>,
	 <50, 36>,
	 <50, 62>,
	 <50, 63>,
	 <50, 64>,
	 <50, 65>,
	 <50, 66>,
	 <50, 37>,
	 <50, 38>,
	 <50, 74>,
	 <50, 68>,
	 <50, 67>,
	 <50, 70>,
	 <50, 60>,
	 <50, 59>,
	 <50, 58>,
	 <50, 71>,
	 <50, 72>,
	 <50, 73>,
	 <50, 75>,
	 <50, 76>,
	 <50, 55>,
	 <50, 69>,
	 <50, 41>,
	 <11, 53>,
	 <11, 49>,
	 <11, 47>,
	 <11, 56>,
	 <11, 57>,
	 <11, 52>,
	 <11, 39>,
	 <11, 48>,
	 <11, 23>,
	 <11, 24>,
	 <11, 25>,
	 <11, 26>,
	 <11, 27>,
	 <11, 61>,
	 <11, 33>,
	 <11, 34>,
	 <11, 35>,
	 <11, 36>,
	 <11, 62>,
	 <11, 63>,
	 <11, 64>,
	 <11, 65>,
	 <11, 66>,
	 <11, 37>,
	 <11, 38>,
	 <11, 74>,
	 <11, 68>,
	 <11, 67>,
	 <11, 70>,
	 <11, 60>,
	 <11, 59>,
	 <11, 58>,
	 <11, 71>,
	 <11, 72>,
	 <11, 73>,
	 <11, 75>,
	 <11, 76>,
	 <11, 55>,
	 <11, 69>,
	 <11, 41>,
	 <15, 11>,
	 <15, 14>,
	 <15, 18>,
	 <15, 19>,
	 <15, 53>,
	 <15, 49>,
	 <15, 47>,
	 <15, 56>,
	 <15, 57>,
	 <15, 52>,
	 <15, 39>,
	 <15, 48>,
	 <15, 23>,
	 <15, 24>,
	 <15, 25>,
	 <15, 26>,
	 <15, 27>,
	 <15, 33>,
	 <15, 34>,
	 <15, 35>,
	 <15, 36>,
	 <15, 62>,
	 <15, 63>,
	 <15, 64>,
	 <15, 65>,
	 <15, 66>,
	 <15, 37>,
	 <15, 38>,
	 <15, 74>,
	 <15, 68>,
	 <15, 67>,
	 <15, 70>,
	 <15, 60>,
	 <15, 59>,
	 <15, 58>,
	 <15, 71>,
	 <15, 72>,
	 <15, 73>,
	 <15, 75>,
	 <15, 76>,
	 <15, 55>,
	 <15, 69>,
	 <15, 41>,
	 <16, 14>,
	 <16, 18>,
	 <16, 19>,
	 <16, 54>,
	 <16, 53>,
	 <16, 49>,
	 <16, 47>,
	 <16, 56>,
	 <16, 57>,
	 <16, 52>,
	 <16, 39>,
	 <16, 48>,
	 <16, 23>,
	 <16, 24>,
	 <16, 25>,
	 <16, 26>,
	 <16, 27>,
	 <16, 33>,
	 <16, 34>,
	 <16, 35>,
	 <16, 36>,
	 <16, 63>,
	 <16, 64>,
	 <16, 65>,
	 <16, 66>,
	 <16, 37>,
	 <16, 38>,
	 <16, 74>,
	 <16, 68>,
	 <16, 67>,
	 <16, 70>,
	 <16, 60>,
	 <16, 59>,
	 <16, 58>,
	 <16, 71>,
	 <16, 72>,
	 <16, 73>,
	 <16, 75>,
	 <16, 76>,
	 <16, 55>,
	 <16, 69>,
	 <16, 41>,
	 <51, 18>,
	 <51, 19>,
	 <51, 54>,
	 <51, 20>,
	 <51, 53>,
	 <51, 49>,
	 <51, 47>,
	 <51, 56>,
	 <51, 57>,
	 <51, 52>,
	 <51, 39>,
	 <51, 48>,
	 <51, 23>,
	 <51, 24>,
	 <51, 25>,
	 <51, 26>,
	 <51, 27>,
	 <51, 33>,
	 <51, 34>,
	 <51, 35>,
	 <51, 36>,
	 <51, 64>,
	 <51, 65>,
	 <51, 66>,
	 <51, 37>,
	 <51, 38>,
	 <51, 74>,
	 <51, 68>,
	 <51, 67>,
	 <51, 70>,
	 <51, 60>,
	 <51, 59>,
	 <51, 58>,
	 <51, 71>,
	 <51, 72>,
	 <51, 73>,
	 <51, 75>,
	 <51, 76>,
	 <51, 55>,
	 <51, 69>,
	 <51, 41>,
	 <17, 19>,
	 <17, 54>,
	 <17, 20>,
	 <17, 21>,
	 <17, 53>,
	 <17, 49>,
	 <17, 47>,
	 <17, 56>,
	 <17, 57>,
	 <17, 52>,
	 <17, 39>,
	 <17, 48>,
	 <17, 23>,
	 <17, 24>,
	 <17, 25>,
	 <17, 26>,
	 <17, 27>,
	 <17, 33>,
	 <17, 34>,
	 <17, 35>,
	 <17, 36>,
	 <17, 65>,
	 <17, 66>,
	 <17, 38>,
	 <17, 74>,
	 <17, 68>,
	 <17, 67>,
	 <17, 70>,
	 <17, 60>,
	 <17, 59>,
	 <17, 58>,
	 <17, 71>,
	 <17, 72>,
	 <17, 73>,
	 <17, 75>,
	 <17, 76>,
	 <17, 55>,
	 <17, 69>,
	 <17, 41>,
	 <14, 53>,
	 <14, 49>,
	 <14, 47>,
	 <14, 56>,
	 <14, 57>,
	 <14, 52>,
	 <14, 39>,
	 <14, 48>,
	 <14, 23>,
	 <14, 24>,
	 <14, 25>,
	 <14, 26>,
	 <14, 27>,
	 <14, 33>,
	 <14, 34>,
	 <14, 35>,
	 <14, 36>,
	 <14, 62>,
	 <14, 63>,
	 <14, 64>,
	 <14, 65>,
	 <14, 66>,
	 <14, 37>,
	 <14, 38>,
	 <14, 74>,
	 <14, 68>,
	 <14, 67>,
	 <14, 70>,
	 <14, 60>,
	 <14, 59>,
	 <14, 58>,
	 <14, 71>,
	 <14, 72>,
	 <14, 73>,
	 <14, 75>,
	 <14, 76>,
	 <14, 55>,
	 <14, 69>,
	 <14, 41>,
	 <18, 53>,
	 <18, 49>,
	 <18, 47>,
	 <18, 56>,
	 <18, 57>,
	 <18, 52>,
	 <18, 39>,
	 <18, 48>,
	 <18, 23>,
	 <18, 24>,
	 <18, 25>,
	 <18, 26>,
	 <18, 27>,
	 <18, 33>,
	 <18, 34>,
	 <18, 35>,
	 <18, 36>,
	 <18, 63>,
	 <18, 64>,
	 <18, 65>,
	 <18, 66>,
	 <18, 37>,
	 <18, 38>,
	 <18, 74>,
	 <18, 68>,
	 <18, 67>,
	 <18, 70>,
	 <18, 60>,
	 <18, 59>,
	 <18, 58>,
	 <18, 71>,
	 <18, 72>,
	 <18, 73>,
	 <18, 75>,
	 <18, 76>,
	 <18, 55>,
	 <18, 69>,
	 <18, 41>,
	 <19, 53>,
	 <19, 49>,
	 <19, 47>,
	 <19, 56>,
	 <19, 57>,
	 <19, 52>,
	 <19, 39>,
	 <19, 48>,
	 <19, 23>,
	 <19, 24>,
	 <19, 25>,
	 <19, 26>,
	 <19, 27>,
	 <19, 33>,
	 <19, 34>,
	 <19, 35>,
	 <19, 36>,
	 <19, 64>,
	 <19, 65>,
	 <19, 66>,
	 <19, 37>,
	 <19, 38>,
	 <19, 74>,
	 <19, 68>,
	 <19, 67>,
	 <19, 70>,
	 <19, 60>,
	 <19, 59>,
	 <19, 58>,
	 <19, 71>,
	 <19, 72>,
	 <19, 73>,
	 <19, 75>,
	 <19, 76>,
	 <19, 55>,
	 <19, 69>,
	 <19, 41>,
	 <54, 53>,
	 <54, 49>,
	 <54, 47>,
	 <54, 56>,
	 <54, 57>,
	 <54, 52>,
	 <54, 39>,
	 <54, 48>,
	 <54, 23>,
	 <54, 24>,
	 <54, 25>,
	 <54, 26>,
	 <54, 27>,
	 <54, 33>,
	 <54, 34>,
	 <54, 35>,
	 <54, 36>,
	 <54, 65>,
	 <54, 66>,
	 <54, 38>,
	 <54, 74>,
	 <54, 68>,
	 <54, 67>,
	 <54, 70>,
	 <54, 60>,
	 <54, 59>,
	 <54, 58>,
	 <54, 71>,
	 <54, 72>,
	 <54, 73>,
	 <54, 75>,
	 <54, 76>,
	 <54, 55>,
	 <54, 69>,
	 <54, 41>,
	 <20, 53>,
	 <20, 49>,
	 <20, 47>,
	 <20, 56>,
	 <20, 57>,
	 <20, 52>,
	 <20, 39>,
	 <20, 48>,
	 <20, 23>,
	 <20, 24>,
	 <20, 25>,
	 <20, 26>,
	 <20, 27>,
	 <20, 34>,
	 <20, 35>,
	 <20, 36>,
	 <20, 66>,
	 <20, 74>,
	 <20, 68>,
	 <20, 67>,
	 <20, 70>,
	 <20, 60>,
	 <20, 59>,
	 <20, 58>,
	 <20, 71>,
	 <20, 72>,
	 <20, 73>,
	 <20, 75>,
	 <20, 76>,
	 <20, 55>,
	 <20, 69>,
	 <20, 41>,
	 <21, 53>,
	 <21, 49>,
	 <21, 47>,
	 <21, 56>,
	 <21, 57>,
	 <21, 52>,
	 <21, 39>,
	 <21, 48>,
	 <21, 23>,
	 <21, 24>,
	 <21, 25>,
	 <21, 26>,
	 <21, 27>,
	 <21, 35>,
	 <21, 36>,
	 <21, 66>,
	 <21, 74>,
	 <21, 68>,
	 <21, 67>,
	 <21, 70>,
	 <21, 60>,
	 <21, 59>,
	 <21, 58>,
	 <21, 71>,
	 <21, 72>,
	 <21, 73>,
	 <21, 75>,
	 <21, 76>,
	 <21, 55>,
	 <21, 69>,
	 <21, 41>,
	 <22, 53>,
	 <22, 49>,
	 <22, 47>,
	 <22, 56>,
	 <22, 57>,
	 <22, 52>,
	 <22, 39>,
	 <22, 48>,
	 <22, 23>,
	 <22, 24>,
	 <22, 25>,
	 <22, 26>,
	 <22, 27>,
	 <22, 36>,
	 <22, 66>,
	 <22, 74>,
	 <22, 68>,
	 <22, 67>,
	 <22, 70>,
	 <22, 60>,
	 <22, 59>,
	 <22, 58>,
	 <22, 71>,
	 <22, 72>,
	 <22, 73>,
	 <22, 75>,
	 <22, 76>,
	 <22, 55>,
	 <22, 69>,
	 <22, 41>,
	 <53, 23>,
	 <53, 24>,
	 <53, 25>,
	 <53, 26>,
	 <53, 27>,
	 <49, 53>,
	 <49, 23>,
	 <49, 24>,
	 <49, 25>,
	 <49, 26>,
	 <49, 27>,
	 <47, 53>,
	 <47, 49>,
	 <47, 23>,
	 <47, 24>,
	 <47, 25>,
	 <47, 26>,
	 <47, 27>,
	 <56, 53>,
	 <56, 49>,
	 <56, 47>,
	 <56, 23>,
	 <56, 24>,
	 <56, 25>,
	 <56, 26>,
	 <56, 27>,
	 <57, 53>,
	 <57, 49>,
	 <57, 47>,
	 <57, 56>,
	 <57, 23>,
	 <57, 24>,
	 <57, 25>,
	 <57, 26>,
	 <57, 27>,
	 <57, 69>,
	 <52, 53>,
	 <52, 49>,
	 <52, 47>,
	 <52, 56>,
	 <52, 57>,
	 <52, 23>,
	 <52, 24>,
	 <52, 25>,
	 <52, 26>,
	 <52, 27>,
	 <52, 74>,
	 <52, 69>,
	 <52, 41>,
	 <39, 53>,
	 <39, 49>,
	 <39, 47>,
	 <39, 56>,
	 <39, 57>,
	 <39, 52>,
	 <39, 23>,
	 <39, 24>,
	 <39, 25>,
	 <39, 26>,
	 <39, 27>,
	 <39, 74>,
	 <39, 68>,
	 <39, 67>,
	 <39, 70>,
	 <39, 71>,
	 <39, 72>,
	 <39, 69>,
	 <39, 41>,
	 <48, 53>,
	 <48, 49>,
	 <48, 47>,
	 <48, 56>,
	 <48, 57>,
	 <48, 52>,
	 <48, 39>,
	 <48, 23>,
	 <48, 24>,
	 <48, 25>,
	 <48, 26>,
	 <48, 27>,
	 <48, 74>,
	 <48, 68>,
	 <48, 67>,
	 <48, 70>,
	 <48, 60>,
	 <48, 71>,
	 <48, 72>,
	 <48, 73>,
	 <48, 75>,
	 <48, 76>,
	 <48, 69>,
	 <48, 41>,
	 <24, 23>,
	 <25, 23>,
	 <25, 24>,
	 <26, 23>,
	 <26, 24>,
	 <26, 25>,
	 <27, 23>,
	 <27, 24>,
	 <27, 25>,
	 <27, 26>,
	 <44, 42>,
	 <44, 28>,
	 <44, 29>,
	 <44, 30>,
	 <44, 45>,
	 <44, 46>,
	 <44, 31>,
	 <44, 32>,
	 <44, 58>,
	 <42, 28>,
	 <42, 29>,
	 <42, 30>,
	 <42, 59>,
	 <42, 58>,
	 <28, 29>,
	 <28, 30>,
	 <28, 59>,
	 <28, 58>,
	 <29, 30>,
	 <29, 59>,
	 <29, 58>,
	 <30, 59>,
	 <30, 58>,
	 <43, 44>,
	 <43, 42>,
	 <43, 28>,
	 <43, 29>,
	 <43, 30>,
	 <43, 45>,
	 <43, 46>,
	 <43, 31>,
	 <43, 32>,
	 <45, 42>,
	 <45, 28>,
	 <45, 29>,
	 <45, 30>,
	 <45, 46>,
	 <45, 31>,
	 <45, 32>,
	 <46, 42>,
	 <46, 28>,
	 <46, 29>,
	 <46, 30>,
	 <46, 31>,
	 <46, 32>,
	 <31, 42>,
	 <31, 28>,
	 <31, 29>,
	 <31, 30>,
	 <31, 32>,
	 <32, 28>,
	 <32, 29>,
	 <32, 30>,
	 <32, 58>,
	 <40, 44>,
	 <40, 42>,
	 <40, 28>,
	 <40, 29>,
	 <40, 30>,
	 <40, 45>,
	 <40, 46>,
	 <40, 31>,
	 <40, 32>,
	 <40, 58>,
	 <61, 33>,
	 <61, 37>,
	 <61, 38>,
	 <62, 33>,
	 <62, 34>,
	 <62, 37>,
	 <62, 38>,
	 <63, 33>,
	 <63, 34>,
	 <63, 35>,
	 <63, 38>,
	 <64, 33>,
	 <64, 34>,
	 <64, 35>,
	 <64, 36>,
	 <65, 34>,
	 <65, 35>,
	 <65, 36>,
	 <66, 35>,
	 <66, 36>,
	 <74, 69>,
	 <74, 41>,
	 <71, 68>,
	 <71, 69>,
	 <71, 41>,
	 <72, 68>,
	 <72, 67>,
	 <72, 41>,
	 <73, 68>,
	 <73, 67>,
	 <73, 70>,
	 <75, 68>,
	 <75, 67>,
	 <75, 70>,
	 <76, 67>,
	 <76, 70>,
	 <76, 60>,
	 <55, 70>,
	 <55, 60>,
	 <55, 59>,
	 }; 

SoftAtomicConstraints = {
	 <22, 2>,
	 <2, 3>,
	 <3, 4>,
	 <4, 5>,
	 <5, 6>,
	 <6, 7>,
	 <7, 8>,
	 <8, 9>,
	 <9, 10>,
	 <1, 11>,
	 <10, 12>,
	 <11, 14>,
	 <50, 15>,
	 <15, 16>,
	 <51, 17>,
	 <14, 18>,
	 <18, 19>,
	 <54, 20>,
	 <20, 21>,
	 <21, 22>,
	 <42, 32>,
	 <38, 33>,
	 <33, 34>,
	 <34, 35>,
	 <35, 36>,
	 <37, 38>,
	 <69, 41>,
	 <40, 43>,
	 <13, 50>,
	 <16, 51>,
	 <19, 54>,
	 <76, 55>,
	 <59, 58>,
	 <60, 59>,
	 <70, 60>,
	 <61, 62>,
	 <62, 63>,
	 <63, 64>,
	 <64, 65>,
	 <65, 66>,
	 <68, 67>,
	 <41, 68>,
	 <67, 70>,
	 <74, 71>,
	 <71, 72>,
	 <72, 73>,
	 <73, 75>,
	 <75, 76>,
	 }; 

DisjunctiveConstraints = {
	 <2, 22, 2, 3>,
	 <3, 2, 3, 4>,
	 <4, 3, 4, 5>,
	 <5, 4, 5, 6>,
	 <6, 5, 6, 7>,
	 <7, 6, 7, 8>,
	 <8, 7, 8, 9>,
	 <9, 8, 9, 10>,
	 <10, 9, 10, 12>,
	 <1, 23, 1, 61>,
	 <13, 39, 13, 1>,
	 <13, 23, 13, 61>,
	 <50, 13, 50, 15>,
	 <50, 49, 50, 11>,
	 <50, 24, 50, 62>,
	 <11, 1, 11, 14>,
	 <11, 24, 11, 62>,
	 <15, 50, 15, 16>,
	 <15, 52, 15, 14>,
	 <15, 25, 15, 63>,
	 <16, 15, 16, 51>,
	 <16, 56, 16, 18>,
	 <16, 26, 16, 64>,
	 <16, 75, 16, 37>,
	 <51, 16, 51, 17>,
	 <51, 27, 51, 65>,
	 <51, 71, 51, 33>,
	 <51, 76, 51, 38>,
	 <17, 72, 17, 34>,
	 <14, 11, 14, 18>,
	 <14, 25, 14, 63>,
	 <14, 75, 14, 37>,
	 <18, 14, 18, 19>,
	 <18, 26, 18, 64>,
	 <18, 75, 18, 37>,
	 <18, 76, 18, 38>,
	 <19, 18, 19, 54>,
	 <19, 27, 19, 65>,
	 <19, 71, 19, 33>,
	 <19, 76, 19, 38>,
	 <54, 19, 54, 20>,
	 <54, 72, 54, 34>,
	 <20, 54, 20, 21>,
	 <20, 66, 20, 28>,
	 <20, 74, 20, 36>,
	 <20, 73, 20, 35>,
	 <21, 20, 21, 22>,
	 <21, 66, 21, 28>,
	 <21, 74, 21, 36>,
	 <22, 21, 22, 2>,
	 <53, 23, 61, 53>,
	 <53, 24, 62, 53>,
	 <53, 25, 63, 53>,
	 <53, 26, 64, 53>,
	 <49, 23, 61, 49>,
	 <49, 24, 62, 49>,
	 <49, 25, 63, 49>,
	 <49, 26, 64, 49>,
	 <49, 27, 65, 49>,
	 <47, 23, 61, 47>,
	 <47, 24, 62, 47>,
	 <47, 25, 63, 47>,
	 <47, 26, 64, 47>,
	 <47, 27, 65, 47>,
	 <56, 23, 61, 56>,
	 <56, 24, 62, 56>,
	 <56, 25, 63, 56>,
	 <56, 26, 64, 56>,
	 <56, 27, 65, 56>,
	 <57, 53, 57, 15>,
	 <57, 49, 57, 11>,
	 <57, 24, 62, 57>,
	 <57, 25, 63, 57>,
	 <57, 26, 64, 57>,
	 <57, 27, 65, 57>,
	 <52, 53, 52, 15>,
	 <52, 49, 52, 11>,
	 <52, 47, 52, 9>,
	 <52, 25, 63, 52>,
	 <52, 26, 64, 52>,
	 <52, 27, 65, 52>,
	 <39, 53, 39, 15>,
	 <39, 49, 39, 11>,
	 <39, 47, 39, 9>,
	 <39, 56, 39, 18>,
	 <39, 26, 64, 39>,
	 <39, 27, 65, 39>,
	 <48, 53, 48, 15>,
	 <48, 49, 48, 11>,
	 <48, 47, 48, 9>,
	 <48, 56, 48, 18>,
	 <48, 27, 65, 48>,
	 <44, 30, 44, 68>,
	 <44, 67, 44, 29>,
	 <42, 58, 42, 20>,
	 <28, 58, 28, 20>,
	 <29, 58, 29, 20>,
	 <30, 58, 30, 20>,
	 <43, 42, 4, 43>,
	 <43, 28, 66, 43>,
	 <43, 29, 67, 43>,
	 <43, 30, 68, 43>,
	 <45, 42, 4, 45>,
	 <45, 28, 66, 45>,
	 <45, 29, 67, 45>,
	 <45, 30, 68, 45>,
	 <46, 28, 66, 46>,
	 <46, 29, 67, 46>,
	 <46, 30, 68, 46>,
	 <31, 29, 67, 31>,
	 <31, 30, 68, 31>,
	 <31, 74, 36, 31>,
	 <32, 30, 68, 32>,
	 <32, 74, 36, 32>,
	 <32, 69, 31, 32>,
	 <40, 30, 40, 68>,
	 <40, 66, 40, 28>,
	 <40, 67, 40, 29>,
	 <33, 38, 33, 34>,
	 <34, 33, 34, 35>,
	 <35, 34, 35, 36>,
	 <61, 75, 61, 37>,
	 <62, 61, 62, 63>,
	 <62, 76, 62, 38>,
	 <63, 62, 63, 64>,
	 <63, 71, 63, 33>,
	 <64, 63, 64, 65>,
	 <64, 72, 64, 34>,
	 <65, 64, 65, 66>,
	 <65, 73, 65, 35>,
	 <38, 37, 38, 33>,
	 <68, 41, 68, 67>,
	 <67, 68, 67, 70>,
	 <70, 67, 70, 60>,
	 <60, 70, 60, 59>,
	 <59, 60, 59, 58>,
	 <71, 74, 71, 72>,
	 <72, 71, 72, 73>,
	 <73, 72, 73, 75>,
	 <75, 73, 75, 76>,
	 <76, 75, 76, 55>,
	 <41, 69, 41, 68>,
	 }; 

DirectSuccessors = {
	1,
	11,
	13,
	50,
	14,
	15,
	16,
	18,
	61,
	33,
	34,
	35,
	62,
	63,
	64,
	65,
	37,
	38,
	 }; 

